NAME : iia15
COMMENT : 15 ciudades en circunferencia radio 1000
TYPE : TSP
DIMENSION: 15
EDGE_WEIGHT_TYPE : EUC_2D
NODE_COORD_SECTION
1 1581.759203714509 186.63893079797572
2 1432.0458795419463 1901.8516274702986
3 1942.2285391979449 1334.9707150198456
4 355.15786146108974 1764.3157831450067
5 841.0779396301057 1987.291131697124
6 17.713014053263464 812.6172973840017
7 655.8353758830609 1938.909320172319
8 664.3713673736283 1941.9943847822833
9 1763.4933635987895 1645.8156731921322
10 1000.634514462117 1999.9997986956785
11 1869.0356046600905 505.25044938568084
12 911.2297023162715 1996.0521242631544
13 798.8969036999879 20.429918454760013
14 1664.675198184606 252.86756132647076
15 1351.0019910432372 63.625287460365485
EOF
